
Gurobi 8.0.1 (linux64) logging started Mon Nov 19 14:21:51 2018

Academic license - for non-commercial use only

Gurobi 8.0.1 (linux64) logging started Mon Nov 19 14:25:54 2018

Academic license - for non-commercial use only

Gurobi 8.0.1 (linux64) logging started Mon Nov 19 14:29:37 2018

Academic license - for non-commercial use only
